# Choose potential
pair_style      eam/fs
pair_coeff      * * CuZr_mm.eam.fs Cu Zr